NAME: PointSet_Angle_40_4
TYPE: TSP
COMMENT: Points chosen discrete uniformly at random out of ${0, \ldots, 500}^2$.
DIMENSION: 40
EDGE_WEIGHT_TYPE: EUC_2D
NODE_COORD_SECTION
1 253 116
2 44 257
3 63 324
4 469 347
5 230 140
6 312 106
7 26 310
8 208 152
9 428 419
10 449 491
11 285 77
12 63 321
13 213 277
14 329 394
15 54 403
16 343 53
17 266 387
18 56 329
19 458 271
20 423 187
21 157 234
22 39 183
23 43 494
24 336 217
25 412 284
26 207 197
27 361 17
28 264 73
29 294 92
30 214 94
31 495 303
32 147 260
33 190 450
34 336 394
35 221 258
36 80 378
37 238 119
38 61 281
39 113 397
40 244 271
EOF
